% seed = 7539879

mint = 48;
% maxt = 107;

nActs = 22;
dur = [0,1,10,7,8,6,5,3,2,1,5,7,10,3,2,4,10,8,9,4,2,0];

nSkills = 4;
sreq = [| 0,0,0,0,
	| 2,3,2,3,
	| 1,3,1,3,
	| 2,2,2,1,
	| 2,3,1,2,
	| 2,1,3,3,
	| 2,2,1,3,
	| 3,1,1,2,
	| 2,1,1,2,
	| 2,3,2,1,
	| 1,3,2,3,
	| 3,2,2,1,
	| 3,3,2,2,
	| 1,2,2,2,
	| 3,1,3,1,
	| 2,3,2,1,
	| 3,3,3,2,
	| 1,2,2,1,
	| 3,2,1,2,
	| 2,1,1,1,
	| 3,1,3,2,
	| 0,0,0,0, |];

nResources = 20;
mastery = [| false,true,true,true,
	| false,false,true,false,
	| false,true,true,true,
	| true,true,true,false,
	| true,false,true,false,
	| true,false,true,false,
	| false,true,false,true,
	| false,true,false,true,
	| true,true,true,false,
	| true,true,false,false,
	| true,false,true,true,
	| true,true,false,true,
	| true,false,false,false,
	| true,false,false,false,
	| true,true,false,false,
	| false,false,true,false,
	| true,true,false,true,
	| false,false,false,true,
	| false,false,true,true,
	| true,false,true,false, |];

nPrecs = 37;
pred = [1,1,1,2,2,3,3,4,4,4,5,5,5,6,6,7,7,7,8,8,9,9,10,11,12,12,13,13,14,15,16,17,17,18,19,20,21];
succ = [2,3,4,18,20,13,21,5,6,7,9,13,14,21,16,10,12,8,11,20,17,15,18,15,19,21,15,16,17,18,17,19,20,19,22,22,22];

nUnrels = 105;
unpred = [2,2,2,2,2,2,2,2,2,2,2,2,2,2,2,2,3,3,3,3,3,3,3,3,3,3,5,5,5,5,5,5,5,6,6,6,6,6,6,6,6,6,6,7,7,7,7,7,8,8,8,8,8,8,8,8,9,9,9,9,9,9,9,10,10,10,10,10,10,10,10,10,11,11,11,11,11,11,11,12,12,12,12,12,12,12,13,13,14,14,14,14,15,15,15,15,16,16,17,17,18,18,19,19,20];
unsucc = [3,4,5,6,7,8,9,10,11,12,13,14,15,16,17,21,4,5,6,7,8,9,10,11,12,14,6,7,8,10,11,12,21,7,8,9,10,11,12,13,14,15,18,9,13,14,16,17,9,10,12,13,14,16,17,21,10,11,12,13,14,16,21,11,12,13,14,15,16,17,20,21,12,13,14,16,17,20,21,13,14,15,16,17,18,20,14,21,15,16,18,21,16,17,20,21,18,21,18,21,20,21,20,21,21];

USEFUL_RES = [{},
	{1,2,3,4,5,6,7,8,9,10,11,12,13,14,15,16,17,18,19,20},
	{1,2,3,4,5,6,7,8,9,10,11,12,13,14,15,16,17,18,19,20},
	{1,2,3,4,5,6,7,8,9,10,11,12,13,14,15,16,17,18,19,20},
	{1,2,3,4,5,6,7,8,9,10,11,12,13,14,15,16,17,18,19,20},
	{1,2,3,4,5,6,7,8,9,10,11,12,13,14,15,16,17,18,19,20},
	{1,2,3,4,5,6,7,8,9,10,11,12,13,14,15,16,17,18,19,20},
	{1,2,3,4,5,6,7,8,9,10,11,12,13,14,15,16,17,18,19,20},
	{1,2,3,4,5,6,7,8,9,10,11,12,13,14,15,16,17,18,19,20},
	{1,2,3,4,5,6,7,8,9,10,11,12,13,14,15,16,17,18,19,20},
	{1,2,3,4,5,6,7,8,9,10,11,12,13,14,15,16,17,18,19,20},
	{1,2,3,4,5,6,7,8,9,10,11,12,13,14,15,16,17,18,19,20},
	{1,2,3,4,5,6,7,8,9,10,11,12,13,14,15,16,17,18,19,20},
	{1,2,3,4,5,6,7,8,9,10,11,12,13,14,15,16,17,18,19,20},
	{1,2,3,4,5,6,7,8,9,10,11,12,13,14,15,16,17,18,19,20},
	{1,2,3,4,5,6,7,8,9,10,11,12,13,14,15,16,17,18,19,20},
	{1,2,3,4,5,6,7,8,9,10,11,12,13,14,15,16,17,18,19,20},
	{1,2,3,4,5,6,7,8,9,10,11,12,13,14,15,16,17,18,19,20},
	{1,2,3,4,5,6,7,8,9,10,11,12,13,14,15,16,17,18,19,20},
	{1,2,3,4,5,6,7,8,9,10,11,12,13,14,15,16,17,18,19,20},
	{1,2,3,4,5,6,7,8,9,10,11,12,13,14,15,16,17,18,19,20},
	{}];

POTENTIAL_ACT = [{2,3,4,5,6,7,8,9,10,11,12,13,14,15,16,17,18,19,20,21},
	{2,3,4,5,6,7,8,9,10,11,12,13,14,15,16,17,18,19,20,21},
	{2,3,4,5,6,7,8,9,10,11,12,13,14,15,16,17,18,19,20,21},
	{2,3,4,5,6,7,8,9,10,11,12,13,14,15,16,17,18,19,20,21},
	{2,3,4,5,6,7,8,9,10,11,12,13,14,15,16,17,18,19,20,21},
	{2,3,4,5,6,7,8,9,10,11,12,13,14,15,16,17,18,19,20,21},
	{2,3,4,5,6,7,8,9,10,11,12,13,14,15,16,17,18,19,20,21},
	{2,3,4,5,6,7,8,9,10,11,12,13,14,15,16,17,18,19,20,21},
	{2,3,4,5,6,7,8,9,10,11,12,13,14,15,16,17,18,19,20,21},
	{2,3,4,5,6,7,8,9,10,11,12,13,14,15,16,17,18,19,20,21},
	{2,3,4,5,6,7,8,9,10,11,12,13,14,15,16,17,18,19,20,21},
	{2,3,4,5,6,7,8,9,10,11,12,13,14,15,16,17,18,19,20,21},
	{2,3,4,5,6,7,8,9,10,11,12,13,14,15,16,17,18,19,20,21},
	{2,3,4,5,6,7,8,9,10,11,12,13,14,15,16,17,18,19,20,21},
	{2,3,4,5,6,7,8,9,10,11,12,13,14,15,16,17,18,19,20,21},
	{2,3,4,5,6,7,8,9,10,11,12,13,14,15,16,17,18,19,20,21},
	{2,3,4,5,6,7,8,9,10,11,12,13,14,15,16,17,18,19,20,21},
	{2,3,4,5,6,7,8,9,10,11,12,13,14,15,16,17,18,19,20,21},
	{2,3,4,5,6,7,8,9,10,11,12,13,14,15,16,17,18,19,20,21},
	{2,3,4,5,6,7,8,9,10,11,12,13,14,15,16,17,18,19,20,21}];
